networks/zoo_131_1716/zoo_131_1716.txt
Number of groups: 64.999999999999886
Flow 6: {46 9} {9 75} 
Flow 10: {13 79} 
Flow 14: {19 85} 
Flow 17: {5 23} {23 89} 
Flow 18: {5 24} {24 90} 
Flow 19: {25 91} 
Flow 24: {20 31} {31 97} 
Flow 25: {26 32} {32 98} 
Flow 30: {19 38} {38 104} 
Flow 32: {21 42} {42 108} 
Flow 33: {21 43} {43 109} 
Flow 34: {20 44} {44 110} 
Flow 35: {21 45} {45 111} 
Flow 40: {7 52} {52 118} 
Flow 42: {11 54} {54 120} 
Flow 43: {11 55} {55 121} 
Flow 46: {58 124} 
Flow 51: {46 63} {63 129} 
Flow 63: {1 12} {12 78} 
Flow 64: {20 13} {13 79} 
Flow 101: {62 58} {58 124} 
Flow 109: {3 62} {62 4} {4 1} {1 67} 
Flow 111: {7 73} 
Flow 129: {20 13} {13 79} 
Flow 130: {4 2} {2 20} {20 15} {15 81} 
Flow 148: {46 36} {36 102} 
Flow 185: {7 2} {2 20} {20 16} {16 82} 
Flow 213: {5 7} {7 1} {1 51} {51 117} 
Flow 220: {62 58} {58 124} 
Flow 231: {1 4} {4 70} 
Flow 252: {20 29} {29 95} 
Flow 256: {26 33} {33 99} 
Flow 288: {8 5} {5 71} 
Flow 289: {8 2} {2 4} {4 6} {6 72} 
Flow 291: {8 2} {2 4} {4 11} {11 77} 
Flow 292: {8 2} 
Flow 307: {9 46} {46 2} {2 21} {21 87} 
Flow 311: {9 46} {46 37} {37 103} 
Flow 312: {9 46} {46 2} {2 21} {21 45} {45 111} 
Flow 355: {10 46} {46 63} {63 129} 
Flow 406: {12 1} {1 7} {7 5} {5 23} {23 89} 
Flow 414: {12 1} {1 7} {7 52} {52 118} 
Flow 422: {13 20} 
Flow 438: {14 20} {20 86} 
Flow 439: {14 20} {20 26} {26 92} 
Flow 440: {14 20} 
Flow 456: {15 20} {20 30} {30 96} 
Flow 457: {15 20} {20 46} {46 37} {37 103} 
Flow 458: {15 20} {20 21} {21 45} {45 111} 
Flow 460: {15 20} {20 2} {2 7} {7 52} {52 118} 
Flow 482: {16 20} {20 31} {31 97} 
Flow 524: {17 19} {19 38} {38 104} 
Flow 556: {18 17} {17 60} {60 126} 
Flow 650: {7 47} {47 113} 
Flow 698: {21 2} {2 4} {4 49} {49 115} 
Flow 713: {22 2} {2 68} 
Flow 737: {23 5} {5 24} {24 90} 
Flow 777: {46 10} {10 76} 
Flow 788: {26 25} 
Flow 798: {17 19} {19 38} {38 104} 
Flow 829: {28 46} {46 112} 
Flow 835: {29 20} {20 86} 
Flow 836: {29 20} {20 46} {46 112} 
Flow 840: {30 20} 
Flow 856: {31 20} {20 13} {13 79} 
Flow 863: {31 20} {20 46} {46 25} {25 91} 
Flow 880: {33 26} {26 20} 
Flow 883: {26 46} {46 112} 
Flow 890: {34 26} 
Flow 906: {35 25} {25 26} {26 17} {17 18} {18 84} 
Flow 914: {25 46} {46 28} {28 94} 
Flow 941: {37 46} {46 20} {20 30} {30 96} 
Flow 942: {37 46} {46 2} {2 21} {21 45} {45 111} 
Flow 957: {38 19} {19 85} 
Flow 983: {17 19} 
Flow 986: {39 17} {17 19} {19 85} 
Flow 991: {39 17} {17 26} {26 46} {46 37} {37 103} 
Flow 1019: {40 19} {19 17} {17 39} {39 105} 
Flow 1024: {7 52} {52 118} 
Flow 1029: {2 62} {62 59} {59 125} 
Flow 1051: {41 19} {19 2} {2 46} {46 27} {27 93} 
Flow 1080: {42 21} {21 20} {20 13} {13 79} 
Flow 1132: {43 21} {21 42} {42 108} 
Flow 1152: {44 20} {20 2} {2 19} {19 85} 
Flow 1154: {44 20} {20 21} {21 87} 
Flow 1182: {45 21} {21 43} {43 109} 
Flow 1245: {47 7} {7 73} 
Flow 1246: {47 7} {7 11} {11 77} 
Flow 1271: {49 4} {4 2} {2 21} {21 45} {45 111} 
Flow 1274: {49 4} {4 62} {62 58} {58 124} 
Flow 1280: {50 6} {6 4} {4 62} {62 3} {3 69} 
Flow 1303: {4 2} 
Flow 1310: {50 6} {6 4} {4 11} {11 54} {54 120} 
Flow 1325: {51 1} {1 12} {12 78} 
Flow 1368: {52 7} {7 5} {5 23} {23 89} 
Flow 1382: {52 7} {7 11} {11 54} {54 120} 
Flow 1385: {52 7} {7 2} {2 62} {62 59} {59 125} 
Flow 1415: {53 7} {7 61} {61 60} {60 65} {65 131} 
Flow 1419: {54 11} {11 4} {4 6} {6 72} 
Flow 1420: {7 73} 
Flow 1420: {54 11} Flow 1459: {55 11} {11 7} {7 53} {53 119} 
Flow 1461: {61 56} {56 122} 
Flow 1471: {56 61} {61 62} {62 3} {3 69} 
Flow 1502: {56 61} {61 62} {62 58} {58 124} 
Flow 1506: {61 62} Flow 1538: {60 17} {17 26} Flow 1564: {60 17} {17 83} 
Flow 1586: {6 50} {50 116} 
Flow 1609: {62 2} {2 20} Flow 1631: {62 2} {2 19} {19 41} {41 107} 
Flow 1646: {59 60} {60 57} {57 123} 
Flow 1652: {62 61} {61 64} {64 130} 
Flow 1661: {63 46} {46 20} {20 13} {13 79} 
Flow 1668: {63 46} {46 25} {25 91} 
Flow 1673: {63 46} {46 26} {26 34} {34 100} 
Flow 1687: {64 61} {61 7} {7 73} 
Flow 1705: {65 60} {60 59} {59 62} {62 128} 
Flow 1715: {66 60} {60 61} {61 127} 
Time taken running everything: 509 seconds
